Nodal displacements
node#	x	y	u	v
1	0.000000	0.000000	0.000000	0.000000
2	0.000000	4.000000	0.000000	0.000000
3	3.000000	4.000000	0.000000	0.000000
4	3.000000	0.000000	-0.666667	-2.814815

Element stresses
ele#	sigmaxx	sigmayy	sigmaxy
1	-0.222222	-0.177778	-0.111111
2	0.370370	0.296296	0.185185
3	0.703704	0.562963	0.351852
